HUN,8,6,163
1,30,2,9,0,19,4,16,3,23,5,4
0,27,2,24,1,3,5,17,3,23,4,5
2,5,1,4,0,18,5,7,3,25,4,6
2,2,0,11,1,5,4,9,5,22,3,27
1,12,2,10,0,18,5,27,4,4,3,21
0,26,2,22,1,23,5,29,3,15,4,28
2,30,1,16,0,1,5,15,3,28,4,27
1,24,2,15,0,11,4,9,3,15,5,22
